p cnf 24 22
-1 4 10 17 19 20 23 -24 0 
-2 6 12 15 16 18 22 23 -24 0 
-3 23 -24 0 
-4 1 10 17 19 20 23 -24 0 
-5 23 -24 0 
-4 1 10 17 19 20 -6 2 12 15 16 18 22 23 -24 0 
-7 -8 23 -24 0 
-9 23 -24 0 
-10 1 4 17 19 20 24 -23 0 
-11 23 -24 0 
-4 1 10 17 19 20 -12 2 6 15 16 18 22 23 -24 0 
-13 -14 23 -24 0 
-12 2 6 15 16 18 22 23 -24 0 
-15 2 6 12 16 18 22 23 -24 0 
-16 2 6 12 15 18 22 23 -24 0 
-14 23 -24 0 
-17 1 4 10 19 20 23 -24 0 
-18 2 6 12 15 16 22 23 -24 0 
-19 1 4 10 17 20 23 -24 0 
-20 1 4 10 17 19 23 -24 0 
-21 23 -24 0 
-22 2 6 12 15 16 18 23 -24 0 
